&CONTROL
   pseudo_dir       = './'
   calculation      = 'scf'
   restart_mode     = 'from_scratch'
   tprnfor          = .true.
   etot_conv_thr    = 1e-05
   forc_conv_thr    = 0.0001
/
&SYSTEM
   ecutwfc          = 35
   ecutrho          = 280
   occupations      = 'smearing'
   degauss          = 0.0045
   smearing         = 'fermi-dirac'
   ntyp             = 1
   nat              = 3
   ibrav            = 0
/
&ELECTRONS
   conv_thr         = 1e-08
   mixing_mode      = 'plain'
   mixing_beta      = 0.6
   diagonalization  = 'ppcg'
   startingwfc      = 'atomic+random'
/
&IONS
/
&CELL
/
&FCP
/
&RISM
/
ATOMIC_SPECIES
Ti 47.867 ti_pbe_v1.4.uspp.F.UPF

K_POINTS automatic
12 12 16  0 0 0

CELL_PARAMETERS angstrom
4.54671110000000 0.00000000000000 0.00000000000000
-2.27335654030577 3.93756674451522 0.00000000000000
0.00000000000000 0.00000000000000 2.82014737000000

ATOMIC_POSITIONS angstrom
Ti 0.0000000000 0.0000000000 0.0000000000  
Ti 0.5324060111 1.2305918269 1.1564719328  
Ti -0.3199846588 2.7069749176 1.1564719328  

